% Logging successfully configured
%%%mzn-stat: initTime=0.009780029
%%%mzn-stat: objective=489
%%%mzn-stat: nodes=138
%%%mzn-stat: restarts=0
%%%mzn-stat: peakDepth=138
%%%mzn-stat: solveTime=0.000782144
%%%mzn-stat: variables=376
%%%mzn-stat: propagators=256
%%%mzn-stat: failures=0
%%%mzn-stat: propagations=858
%%%mzn-stat: nogoods=0
%%%mzn-stat: numAtomicConstraintsPropagated=0
%%%mzn-stat: circuitNumber1PropagationsTotal=35
%%%mzn-stat: circuitNumber1CircuitConflicts=0
%%%mzn-stat: circuitNumber1AlldiffConflicts=0
%%%mzn-stat: circuitNumber1TotalFixedEdgesAtConflict=0
%%%mzn-stat: circuitNumber1NumberOfConflicts=0
%%%mzn-stat: circuitNumber1GacPrunings=75
%%%mzn-stat: circuitNumber1PropagationsThatGacPruned=18
%%%mzn-stat: circuitNumber1TotalPruningHallSetSize=77
%%%mzn-stat: circuitNumber1NumberOfPruningExplanations=75
%%%mzn-stat: circuitNumber1MaxPruningHallSetSize=3
%%%mzn-stat: circuitNumber1TotalSccSizeAtPruning=22
%%%mzn-stat: circuitNumber1NumberOfSccPruningCalls=18
%%%mzn-stat: circuitNumber1TotalVarsInvolvedInPruning=74
%%%mzn-stat: circuitNumber1MaxValuesPrunedFromSingleVar=2
%%%mzn-stat: circuitNumber1HallCircuitChecks=32
%%%mzn-stat: circuitNumber1HallCircuitPrunings=6
%%%mzn-stat: circuitNumber1CircuitPreventPrunings=10
%%%mzn-stat: AverageConflictSize=0
%%%mzn-stat: NumUnitNogoodsLearned=0
%%%mzn-stat: AverageLearnedNogoodLength=0
%%%mzn-stat: AverageBacktrackAmount=0
%%%mzn-stat: AverageLbd=0
%%%mzn-stat: 2AutonomousSearchNumBackupCalled=121
%%%mzn-stat: 2AutonomousSearchNumPredicatesRemoved=0
%%%mzn-stat: 2AutonomousSearchNumCalls=122
%%%mzn-stat: 2AutonomousSearchNumPredicatesAdded=0
%%%mzn-stat: 2AutonomousSearchAverageSizeOfHeap=0
%%%mzn-stat: 2AutonomousSearchNumAssignedPredicatesEncountered=0
%%%mzn-stat-end
maxleg = 489;
succ = array1d(1..20,[3, 4, 2, 5, 11, 8, 1, 7, 6, 9, 12, 13, 14, 15, 19, 10, 18, 16, 20, 17]);
% time elapsed: 6.34 s
----------
%%%mzn-stat: initTime=0.009780029
%%%mzn-stat: objective=437
%%%mzn-stat: nodes=270
%%%mzn-stat: restarts=0
%%%mzn-stat: peakDepth=138
%%%mzn-stat: solveTime=0.001372449
%%%mzn-stat: variables=376
%%%mzn-stat: propagators=256
%%%mzn-stat: failures=0
%%%mzn-stat: propagations=1310
%%%mzn-stat: nogoods=0
%%%mzn-stat: numAtomicConstraintsPropagated=0
%%%mzn-stat: circuitNumber1PropagationsTotal=65
%%%mzn-stat: circuitNumber1CircuitConflicts=0
%%%mzn-stat: circuitNumber1AlldiffConflicts=0
%%%mzn-stat: circuitNumber1TotalFixedEdgesAtConflict=0
%%%mzn-stat: circuitNumber1NumberOfConflicts=0
%%%mzn-stat: circuitNumber1GacPrunings=139
%%%mzn-stat: circuitNumber1PropagationsThatGacPruned=32
%%%mzn-stat: circuitNumber1TotalPruningHallSetSize=156
%%%mzn-stat: circuitNumber1NumberOfPruningExplanations=139
%%%mzn-stat: circuitNumber1MaxPruningHallSetSize=6
%%%mzn-stat: circuitNumber1TotalSccSizeAtPruning=43
%%%mzn-stat: circuitNumber1NumberOfSccPruningCalls=32
%%%mzn-stat: circuitNumber1TotalVarsInvolvedInPruning=136
%%%mzn-stat: circuitNumber1MaxValuesPrunedFromSingleVar=2
%%%mzn-stat: circuitNumber1HallCircuitChecks=60
%%%mzn-stat: circuitNumber1HallCircuitPrunings=10
%%%mzn-stat: circuitNumber1CircuitPreventPrunings=21
%%%mzn-stat: AverageConflictSize=0
%%%mzn-stat: NumUnitNogoodsLearned=0
%%%mzn-stat: AverageLearnedNogoodLength=0
%%%mzn-stat: AverageBacktrackAmount=0
%%%mzn-stat: AverageLbd=0
%%%mzn-stat: 2AutonomousSearchNumBackupCalled=238
%%%mzn-stat: 2AutonomousSearchNumPredicatesRemoved=0
%%%mzn-stat: 2AutonomousSearchNumCalls=240
%%%mzn-stat: 2AutonomousSearchNumPredicatesAdded=0
%%%mzn-stat: 2AutonomousSearchAverageSizeOfHeap=0
%%%mzn-stat: 2AutonomousSearchNumAssignedPredicatesEncountered=0
%%%mzn-stat-end
maxleg = 437;
succ = array1d(1..20,[3, 4, 2, 5, 11, 8, 1, 7, 6, 9, 14, 13, 15, 12, 19, 10, 18, 16, 20, 17]);
% time elapsed: 6.34 s
----------
%%%mzn-stat: initTime=0.009780029
%%%mzn-stat: objective=404
%%%mzn-stat: nodes=397
%%%mzn-stat: restarts=0
%%%mzn-stat: peakDepth=138
%%%mzn-stat: solveTime=0.002021457
%%%mzn-stat: variables=376
%%%mzn-stat: propagators=256
%%%mzn-stat: failures=0
%%%mzn-stat: propagations=1767
%%%mzn-stat: nogoods=0
%%%mzn-stat: numAtomicConstraintsPropagated=0
%%%mzn-stat: circuitNumber1PropagationsTotal=96
%%%mzn-stat: circuitNumber1CircuitConflicts=0
%%%mzn-stat: circuitNumber1AlldiffConflicts=0
%%%mzn-stat: circuitNumber1TotalFixedEdgesAtConflict=0
%%%mzn-stat: circuitNumber1NumberOfConflicts=0
%%%mzn-stat: circuitNumber1GacPrunings=199
%%%mzn-stat: circuitNumber1PropagationsThatGacPruned=47
%%%mzn-stat: circuitNumber1TotalPruningHallSetSize=286
%%%mzn-stat: circuitNumber1NumberOfPruningExplanations=199
%%%mzn-stat: circuitNumber1MaxPruningHallSetSize=14
%%%mzn-stat: circuitNumber1TotalSccSizeAtPruning=113
%%%mzn-stat: circuitNumber1NumberOfSccPruningCalls=47
%%%mzn-stat: circuitNumber1TotalVarsInvolvedInPruning=191
%%%mzn-stat: circuitNumber1MaxValuesPrunedFromSingleVar=3
%%%mzn-stat: circuitNumber1HallCircuitChecks=94
%%%mzn-stat: circuitNumber1HallCircuitPrunings=21
%%%mzn-stat: circuitNumber1CircuitPreventPrunings=32
%%%mzn-stat: AverageConflictSize=0
%%%mzn-stat: NumUnitNogoodsLearned=0
%%%mzn-stat: AverageLearnedNogoodLength=0
%%%mzn-stat: AverageBacktrackAmount=0
%%%mzn-stat: AverageLbd=0
%%%mzn-stat: 2AutonomousSearchNumBackupCalled=351
%%%mzn-stat: 2AutonomousSearchNumPredicatesRemoved=0
%%%mzn-stat: 2AutonomousSearchNumCalls=354
%%%mzn-stat: 2AutonomousSearchNumPredicatesAdded=0
%%%mzn-stat: 2AutonomousSearchAverageSizeOfHeap=0
%%%mzn-stat: 2AutonomousSearchNumAssignedPredicatesEncountered=0
%%%mzn-stat-end
maxleg = 404;
succ = array1d(1..20,[3, 4, 2, 5, 11, 8, 1, 7, 6, 16, 14, 13, 15, 12, 19, 18, 10, 9, 20, 17]);
% time elapsed: 6.34 s
----------
%%%mzn-stat: initTime=0.009780029
%%%mzn-stat: objective=392
%%%mzn-stat: nodes=513
%%%mzn-stat: restarts=0
%%%mzn-stat: peakDepth=138
%%%mzn-stat: solveTime=0.002611325
%%%mzn-stat: variables=376
%%%mzn-stat: propagators=256
%%%mzn-stat: failures=0
%%%mzn-stat: propagations=2233
%%%mzn-stat: nogoods=0
%%%mzn-stat: numAtomicConstraintsPropagated=0
%%%mzn-stat: circuitNumber1PropagationsTotal=125
%%%mzn-stat: circuitNumber1CircuitConflicts=0
%%%mzn-stat: circuitNumber1AlldiffConflicts=0
%%%mzn-stat: circuitNumber1TotalFixedEdgesAtConflict=0
%%%mzn-stat: circuitNumber1NumberOfConflicts=0
%%%mzn-stat: circuitNumber1GacPrunings=253
%%%mzn-stat: circuitNumber1PropagationsThatGacPruned=62
%%%mzn-stat: circuitNumber1TotalPruningHallSetSize=413
%%%mzn-stat: circuitNumber1NumberOfPruningExplanations=253
%%%mzn-stat: circuitNumber1MaxPruningHallSetSize=15
%%%mzn-stat: circuitNumber1TotalSccSizeAtPruning=185
%%%mzn-stat: circuitNumber1NumberOfSccPruningCalls=62
%%%mzn-stat: circuitNumber1TotalVarsInvolvedInPruning=240
%%%mzn-stat: circuitNumber1MaxValuesPrunedFromSingleVar=3
%%%mzn-stat: circuitNumber1HallCircuitChecks=126
%%%mzn-stat: circuitNumber1HallCircuitPrunings=30
%%%mzn-stat: circuitNumber1CircuitPreventPrunings=41
%%%mzn-stat: AverageConflictSize=0
%%%mzn-stat: NumUnitNogoodsLearned=0
%%%mzn-stat: AverageLearnedNogoodLength=0
%%%mzn-stat: AverageBacktrackAmount=0
%%%mzn-stat: AverageLbd=0
%%%mzn-stat: 2AutonomousSearchNumBackupCalled=454
%%%mzn-stat: 2AutonomousSearchNumPredicatesRemoved=0
%%%mzn-stat: 2AutonomousSearchNumCalls=458
%%%mzn-stat: 2AutonomousSearchNumPredicatesAdded=0
%%%mzn-stat: 2AutonomousSearchAverageSizeOfHeap=0
%%%mzn-stat: 2AutonomousSearchNumAssignedPredicatesEncountered=0
%%%mzn-stat-end
maxleg = 392;
succ = array1d(1..20,[3, 4, 2, 5, 11, 8, 1, 7, 6, 16, 14, 13, 19, 12, 20, 18, 10, 9, 15, 17]);
% time elapsed: 6.34 s
----------
%%%mzn-stat: initTime=0.009780029
%%%mzn-stat: objective=378
%%%mzn-stat: nodes=620
%%%mzn-stat: restarts=0
%%%mzn-stat: peakDepth=138
%%%mzn-stat: solveTime=0.003236979
%%%mzn-stat: variables=376
%%%mzn-stat: propagators=256
%%%mzn-stat: failures=0
%%%mzn-stat: propagations=2716
%%%mzn-stat: nogoods=0
%%%mzn-stat: numAtomicConstraintsPropagated=0
%%%mzn-stat: circuitNumber1PropagationsTotal=156
%%%mzn-stat: circuitNumber1CircuitConflicts=0
%%%mzn-stat: circuitNumber1AlldiffConflicts=0
%%%mzn-stat: circuitNumber1TotalFixedEdgesAtConflict=0
%%%mzn-stat: circuitNumber1NumberOfConflicts=0
%%%mzn-stat: circuitNumber1GacPrunings=307
%%%mzn-stat: circuitNumber1PropagationsThatGacPruned=78
%%%mzn-stat: circuitNumber1TotalPruningHallSetSize=555
%%%mzn-stat: circuitNumber1NumberOfPruningExplanations=307
%%%mzn-stat: circuitNumber1MaxPruningHallSetSize=15
%%%mzn-stat: circuitNumber1TotalSccSizeAtPruning=254
%%%mzn-stat: circuitNumber1NumberOfSccPruningCalls=78
%%%mzn-stat: circuitNumber1TotalVarsInvolvedInPruning=288
%%%mzn-stat: circuitNumber1MaxValuesPrunedFromSingleVar=3
%%%mzn-stat: circuitNumber1HallCircuitChecks=168
%%%mzn-stat: circuitNumber1HallCircuitPrunings=40
%%%mzn-stat: circuitNumber1CircuitPreventPrunings=50
%%%mzn-stat: AverageConflictSize=0
%%%mzn-stat: NumUnitNogoodsLearned=0
%%%mzn-stat: AverageLearnedNogoodLength=0
%%%mzn-stat: AverageBacktrackAmount=0
%%%mzn-stat: AverageLbd=0
%%%mzn-stat: 2AutonomousSearchNumBackupCalled=549
%%%mzn-stat: 2AutonomousSearchNumPredicatesRemoved=0
%%%mzn-stat: 2AutonomousSearchNumCalls=554
%%%mzn-stat: 2AutonomousSearchNumPredicatesAdded=0
%%%mzn-stat: 2AutonomousSearchAverageSizeOfHeap=0
%%%mzn-stat: 2AutonomousSearchNumAssignedPredicatesEncountered=0
%%%mzn-stat-end
maxleg = 378;
succ = array1d(1..20,[3, 4, 2, 5, 11, 9, 1, 7, 8, 16, 14, 13, 19, 12, 20, 18, 10, 6, 15, 17]);
% time elapsed: 6.34 s
----------
%%%mzn-stat: initTime=0.009780029
%%%mzn-stat: objective=362
%%%mzn-stat: nodes=727
%%%mzn-stat: restarts=0
%%%mzn-stat: peakDepth=138
%%%mzn-stat: solveTime=0.003839873
%%%mzn-stat: variables=376
%%%mzn-stat: propagators=256
%%%mzn-stat: failures=0
%%%mzn-stat: propagations=3199
%%%mzn-stat: nogoods=0
%%%mzn-stat: numAtomicConstraintsPropagated=0
%%%mzn-stat: circuitNumber1PropagationsTotal=187
%%%mzn-stat: circuitNumber1CircuitConflicts=0
%%%mzn-stat: circuitNumber1AlldiffConflicts=0
%%%mzn-stat: circuitNumber1TotalFixedEdgesAtConflict=0
%%%mzn-stat: circuitNumber1NumberOfConflicts=0
%%%mzn-stat: circuitNumber1GacPrunings=356
%%%mzn-stat: circuitNumber1PropagationsThatGacPruned=94
%%%mzn-stat: circuitNumber1TotalPruningHallSetSize=646
%%%mzn-stat: circuitNumber1NumberOfPruningExplanations=356
%%%mzn-stat: circuitNumber1MaxPruningHallSetSize=15
%%%mzn-stat: circuitNumber1TotalSccSizeAtPruning=307
%%%mzn-stat: circuitNumber1NumberOfSccPruningCalls=94
%%%mzn-stat: circuitNumber1TotalVarsInvolvedInPruning=334
%%%mzn-stat: circuitNumber1MaxValuesPrunedFromSingleVar=3
%%%mzn-stat: circuitNumber1HallCircuitChecks=206
%%%mzn-stat: circuitNumber1HallCircuitPrunings=49
%%%mzn-stat: circuitNumber1CircuitPreventPrunings=59
%%%mzn-stat: AverageConflictSize=0
%%%mzn-stat: NumUnitNogoodsLearned=0
%%%mzn-stat: AverageLearnedNogoodLength=0
%%%mzn-stat: AverageBacktrackAmount=0
%%%mzn-stat: AverageLbd=0
%%%mzn-stat: 2AutonomousSearchNumBackupCalled=643
%%%mzn-stat: 2AutonomousSearchNumPredicatesRemoved=0
%%%mzn-stat: 2AutonomousSearchNumCalls=649
%%%mzn-stat: 2AutonomousSearchNumPredicatesAdded=0
%%%mzn-stat: 2AutonomousSearchAverageSizeOfHeap=0
%%%mzn-stat: 2AutonomousSearchNumAssignedPredicatesEncountered=0
%%%mzn-stat-end
maxleg = 362;
succ = array1d(1..20,[3, 5, 2, 1, 11, 9, 4, 7, 8, 16, 14, 13, 19, 12, 20, 18, 10, 6, 15, 17]);
% time elapsed: 6.34 s
----------
%%%mzn-stat: initTime=0.009780029
%%%mzn-stat: objective=356
%%%mzn-stat: nodes=825
%%%mzn-stat: restarts=0
%%%mzn-stat: peakDepth=138
%%%mzn-stat: solveTime=0.004423833
%%%mzn-stat: variables=376
%%%mzn-stat: propagators=256
%%%mzn-stat: failures=0
%%%mzn-stat: propagations=3676
%%%mzn-stat: nogoods=0
%%%mzn-stat: numAtomicConstraintsPropagated=0
%%%mzn-stat: circuitNumber1PropagationsTotal=215
%%%mzn-stat: circuitNumber1CircuitConflicts=0
%%%mzn-stat: circuitNumber1AlldiffConflicts=0
%%%mzn-stat: circuitNumber1TotalFixedEdgesAtConflict=0
%%%mzn-stat: circuitNumber1NumberOfConflicts=0
%%%mzn-stat: circuitNumber1GacPrunings=405
%%%mzn-stat: circuitNumber1PropagationsThatGacPruned=109
%%%mzn-stat: circuitNumber1TotalPruningHallSetSize=765
%%%mzn-stat: circuitNumber1NumberOfPruningExplanations=405
%%%mzn-stat: circuitNumber1MaxPruningHallSetSize=15
%%%mzn-stat: circuitNumber1TotalSccSizeAtPruning=381
%%%mzn-stat: circuitNumber1NumberOfSccPruningCalls=109
%%%mzn-stat: circuitNumber1TotalVarsInvolvedInPruning=378
%%%mzn-stat: circuitNumber1MaxValuesPrunedFromSingleVar=3
%%%mzn-stat: circuitNumber1HallCircuitChecks=241
%%%mzn-stat: circuitNumber1HallCircuitPrunings=61
%%%mzn-stat: circuitNumber1CircuitPreventPrunings=68
%%%mzn-stat: AverageConflictSize=0
%%%mzn-stat: NumUnitNogoodsLearned=0
%%%mzn-stat: AverageLearnedNogoodLength=0
%%%mzn-stat: AverageBacktrackAmount=0
%%%mzn-stat: AverageLbd=0
%%%mzn-stat: 2AutonomousSearchNumBackupCalled=731
%%%mzn-stat: 2AutonomousSearchNumPredicatesRemoved=0
%%%mzn-stat: 2AutonomousSearchNumCalls=738
%%%mzn-stat: 2AutonomousSearchNumPredicatesAdded=0
%%%mzn-stat: 2AutonomousSearchAverageSizeOfHeap=0
%%%mzn-stat: 2AutonomousSearchNumAssignedPredicatesEncountered=0
%%%mzn-stat-end
maxleg = 356;
succ = array1d(1..20,[3, 5, 2, 1, 11, 9, 4, 7, 8, 16, 14, 15, 12, 19, 20, 18, 10, 6, 13, 17]);
% time elapsed: 6.34 s
----------
==========
% time elapsed: 6.39 s
%%%mzn-stat: initTime=0.009780029
%%%mzn-stat: objective=356
%%%mzn-stat: nodes=1264
%%%mzn-stat: restarts=0
%%%mzn-stat: peakDepth=138
%%%mzn-stat: solveTime=0.087454518
%%%mzn-stat: variables=376
%%%mzn-stat: propagators=256
%%%mzn-stat: failures=422
%%%mzn-stat: propagations=24349
%%%mzn-stat: nogoods=422
%%%mzn-stat: numAtomicConstraintsPropagated=0
%%%mzn-stat: circuitNumber1PropagationsTotal=2651
%%%mzn-stat: circuitNumber1CircuitConflicts=194
%%%mzn-stat: circuitNumber1AlldiffConflicts=7
%%%mzn-stat: circuitNumber1TotalFixedEdgesAtConflict=3017
%%%mzn-stat: circuitNumber1NumberOfConflicts=201
%%%mzn-stat: circuitNumber1GacPrunings=4890
%%%mzn-stat: circuitNumber1PropagationsThatGacPruned=1516
%%%mzn-stat: circuitNumber1TotalPruningHallSetSize=13046
%%%mzn-stat: circuitNumber1NumberOfPruningExplanations=4890
%%%mzn-stat: circuitNumber1MaxPruningHallSetSize=17
%%%mzn-stat: circuitNumber1TotalSccSizeAtPruning=8639
%%%mzn-stat: circuitNumber1NumberOfSccPruningCalls=1516
%%%mzn-stat: circuitNumber1TotalVarsInvolvedInPruning=3887
%%%mzn-stat: circuitNumber1MaxValuesPrunedFromSingleVar=4
%%%mzn-stat: circuitNumber1HallCircuitChecks=3408
%%%mzn-stat: circuitNumber1HallCircuitPrunings=423
%%%mzn-stat: circuitNumber1CircuitPreventPrunings=1443
%%%mzn-stat: AverageConflictSize=11.443127962085308
%%%mzn-stat: NumUnitNogoodsLearned=1
%%%mzn-stat: AverageLearnedNogoodLength=34.296208530805686
%%%mzn-stat: AverageBacktrackAmount=0
%%%mzn-stat: AverageLbd=6.7274881516587675
%%%mzn-stat: 2AutonomousSearchNumBackupCalled=731
%%%mzn-stat: 2AutonomousSearchNumPredicatesRemoved=0
%%%mzn-stat: 2AutonomousSearchNumCalls=738
%%%mzn-stat: 2AutonomousSearchNumPredicatesAdded=821
%%%mzn-stat: 2AutonomousSearchAverageSizeOfHeap=0
%%%mzn-stat: 2AutonomousSearchNumAssignedPredicatesEncountered=0
%%%mzn-stat-end
